data/instances/HB/dwt_59.col
c Arquivo convertido de dwt___59.mtx
p edge 59 104
e 1 2
e 1 7
e 1 9
e 2 3
e 2 7
e 2 10
e 3 11
e 4 5
e 4 12
e 5 6
e 5 8
e 5 13
e 6 8
e 6 14
e 7 9
e 7 10
e 8 13
e 8 14
e 9 10
e 9 27
e 10 11
e 11 15
e 12 13
e 12 20
e 13 14
e 14 30
e 15 16
e 15 34
e 16 17
e 16 21
e 16 35
e 17 18
e 17 21
e 17 23
e 18 19
e 18 22
e 18 24
e 19 20
e 19 22
e 19 25
e 20 26
e 21 23
e 21 35
e 22 24
e 22 25
e 23 24
e 23 35
e 24 25
e 24 36
e 25 26
e 26 29
e 27 28
e 27 31
e 27 39
e 28 31
e 28 33
e 28 34
e 29 30
e 29 32
e 29 38
e 30 32
e 30 42
e 31 39
e 31 40
e 32 41
e 32 42
e 33 40
e 33 58
e 34 35
e 36 37
e 36 50
e 36 51
e 36 59
e 37 38
e 37 51
e 37 52
e 38 41
e 39 40
e 39 44
e 40 45
e 41 42
e 41 53
e 42 55
e 43 44
e 44 45
e 45 46
e 45 47
e 47 48
e 47 49
e 47 58
e 48 49
e 48 58
e 48 59
e 49 50
e 49 57
e 49 59
e 50 51
e 50 52
e 51 52
e 52 53
e 53 54
e 53 55
e 55 56
e 58 59
