data/instances/Harwell–Boeing/dwt_59.txt
59 104
0 1
0 6
0 8
1 2
1 6
1 9
2 10
3 4
3 11
4 5
4 7
4 12
5 7
5 13
6 8
6 9
7 12
7 13
8 9
8 26
9 10
10 14
11 12
11 19
12 13
13 29
14 15
14 33
15 16
15 20
15 34
16 17
16 20
16 22
17 18
17 21
17 23
18 19
18 21
18 24
19 25
20 22
20 34
21 23
21 24
22 23
22 34
23 24
23 35
24 25
25 28
26 27
26 30
26 38
27 30
27 32
27 33
28 29
28 31
28 37
29 31
29 41
30 38
30 39
31 40
31 41
32 39
32 57
33 34
35 36
35 49
35 50
35 58
36 37
36 50
36 51
37 40
38 39
38 43
39 44
40 41
40 52
41 54
42 43
43 44
44 45
44 46
46 47
46 48
46 57
47 48
47 57
47 58
48 49
48 56
48 58
49 50
49 51
50 51
51 52
52 53
52 54
54 55
57 58
